DIMENSION: 8
EDGE_WEIGHT_TYPE: EXPLICIT
EDGE_WEIGHT_FORMAT: FULL_MATRIX
EDGE_WEIGHT_SECTION:
32767 32767 32767 35 19 32767 85 32767 
32767 32767 32767 22 32767 25 32767 32767 
32767 32767 32767 32767 94 32767 32767 48 
35 22 32767 32767 32767 32767 32767 32767 
19 32767 94 32767 32767 86 90 41 
32767 25 32767 32767 86 32767 73 32767 
85 32767 32767 32767 90 73 32767 9 
32767 32767 48 32767 41 32767 9 32767 
EOF